Version identifier: 22.1.0.0 | 2022-03-09 | 1a383f8ce
CPXPARAM_Threads                                 1
CPXPARAM_MIP_Strategy_VariableSelect             3
CPXPARAM_TimeLimit                               600
Tried aggregator 1 time.
MIP Presolve eliminated 13 rows and 0 columns.
MIP Presolve modified 1 coefficients.
Reduced MIP has 1211 rows, 4801 columns, and 52759 nonzeros.
Reduced MIP has 4800 binaries, 0 generals, 0 SOSs, and 0 indicators.
Presolve time = 0.02 sec. (18.27 ticks)
Found incumbent of value 54.000000 after 0.07 sec. (51.12 ticks)
Probing time = 0.00 sec. (6.15 ticks)
Tried aggregator 1 time.
Detecting symmetries...
Reduced MIP has 1211 rows, 4801 columns, and 52759 nonzeros.
Reduced MIP has 4800 binaries, 0 generals, 0 SOSs, and 0 indicators.
Presolve time = 0.03 sec. (24.70 ticks)
Probing time = 0.00 sec. (6.15 ticks)
Clique table members: 202.
MIP emphasis: balance optimality and feasibility.
MIP search method: dynamic search.
Parallel mode: none, using 1 thread.
Root relaxation solution time = 0.75 sec. (770.44 ticks)

        Nodes                                         Cuts/
   Node  Left     Objective  IInf  Best Integer    Best Bound    ItCnt     Gap

*     0+    0                           54.0000        0.0000           100.00%
      0     0        0.0000   955       54.0000        0.0000     3385  100.00%
*     0+    0                            3.0000        0.0000           100.00%
*     0+    0                            2.0000        0.0000           100.00%
*     0+    0                            1.0000        0.0000           100.00%
      0     2        0.0000   282        1.0000        0.0000     3385  100.00%
Elapsed time = 10.41 sec. (10723.08 ticks, tree = 0.01 MB, solutions = 4)
      1     3        0.0000   423        1.0000        0.0000     7962  100.00%
      2     4        0.0000   419        1.0000        0.0000    11637  100.00%
      3     5        0.0000   392        1.0000        0.0000    15471  100.00%
      4     6        0.0000   688        1.0000        0.0000    19958  100.00%
      6     8        0.0000   528        1.0000        0.0000    23118  100.00%
      7     9        0.0000   880        1.0000        0.0000    25187  100.00%
      8    10        0.5000   308        1.0000        0.0000    27301  100.00%
      9    11       -0.0000   811        1.0000        0.0000    27515  100.00%
     10    12        0.0000   635        1.0000        0.0000    28452  100.00%
     13    15        0.0000   623        1.0000        0.0000    31277  100.00%
Elapsed time = 18.88 sec. (20251.55 ticks, tree = 0.05 MB, solutions = 4)
     14    16        0.0000   689        1.0000        0.0000    34632  100.00%
     16    18        0.0000   716        1.0000        0.0000    38716  100.00%
     19    21        0.0003   766        1.0000        0.0000    43443  100.00%
     20    22        0.0000   740        1.0000        0.0000    43558  100.00%
     21    23       -0.0000   629        1.0000        0.0000    46757  100.00%
     24    26        0.0000   617        1.0000        0.0000    52688  100.00%
     27    29       -0.0000   599        1.0000        0.0000    58890  100.00%
     31    33        0.0000   586        1.0000        0.0000    60502  100.00%
     35    37        0.0000   557        1.0000        0.0000    63014  100.00%
     38    40       -0.0000   616        1.0000        0.0000    64966  100.00%
Elapsed time = 33.27 sec. (36268.44 ticks, tree = 0.10 MB, solutions = 4)
     40    42        0.0018   725        1.0000        0.0000    68009  100.00%
     43    45        0.0014   727        1.0000        0.0000    72847  100.00%
     47    49        0.0000   551        1.0000        0.0000    79278  100.00%
     48    50        0.0013   773        1.0000        0.0000    86779  100.00%
     50    52       -0.0000   513        1.0000        0.0000    88425  100.00%
     53    55        0.0000   522        1.0000        0.0000    95030  100.00%
     55    57       -0.0000   488        1.0000        0.0000    96256  100.00%
     59    61        0.0022   680        1.0000        0.0000   110311  100.00%
     62    64        0.0000   480        1.0000        0.0000   112600  100.00%
     65    67        0.0022   647        1.0000        0.0000   119939  100.00%
Elapsed time = 51.34 sec. (54938.19 ticks, tree = 0.37 MB, solutions = 4)
     70    72        0.0000   357        1.0000        0.0000   121925  100.00%
     72    74        0.5000   287        1.0000        0.0000   128713  100.00%
     73    75       -0.0000   342        1.0000        0.0000   135754  100.00%
     77    79        0.0006   626        1.0000        0.0000   147245  100.00%
     80    82        0.0000   334        1.0000        0.0000   154688  100.00%
     81    83        0.0006   651        1.0000        0.0000   162350  100.00%
     83    85        0.0012   659        1.0000        0.0000   169062  100.00%
     86    88        0.0006   662        1.0000        0.0000   175202  100.00%
     90    92        0.0000   331        1.0000        0.0000   182829  100.00%
     94    96        0.0000   327        1.0000        0.0000   188604  100.00%
Elapsed time = 64.97 sec. (68846.30 ticks, tree = 0.47 MB, solutions = 4)
     98   100        0.0015   608        1.0000        0.0000   195513  100.00%
    102   104        0.0010   598        1.0000        0.0000   203355  100.00%
    108   110        0.0031   582        1.0000        0.0000   209676  100.00%
    112   114        0.0130   558        1.0000        0.0000   211133  100.00%
    120   122        0.0011   576        1.0000        0.0000   213804  100.00%
    126   128        0.0011   573        1.0000        0.0000   222098  100.00%
    130   132        0.0233   543        1.0000        0.0000   226083  100.00%
    137   139        0.0021   579        1.0000        0.0000   230527  100.00%
    144   146        0.0011   572        1.0000        0.0000   233758  100.00%
    150   152        0.0056   551        1.0000        0.0000   236500  100.00%
Elapsed time = 76.69 sec. (80319.26 ticks, tree = 0.58 MB, solutions = 4)
    157   159        0.0011   576        1.0000        0.0000   240053  100.00%
    160   162        0.0227   544        1.0000        0.0000   243940  100.00%
    167   169        0.0014   572        1.0000        0.0000   249423  100.00%
    176   178        0.0256   552        1.0000        0.0000   251409  100.00%
    181   183        0.0013   571        1.0000        0.0000   253329  100.00%
    191   193        0.5000   258        1.0000        0.0000   257426  100.00%
    200   202        0.0055   537        1.0000        0.0000   260312  100.00%
    208   210        0.0013   557        1.0000        0.0000   265745  100.00%
    216   218        0.5000   261        1.0000        0.0000   272506  100.00%
    220   222        0.0137   508        1.0000        0.0000   273301  100.00%
Elapsed time = 87.77 sec. (91314.07 ticks, tree = 0.73 MB, solutions = 4)
    227   229        0.0042   553        1.0000        0.0000   277581  100.00%
    234   236        0.0047   539        1.0000        0.0000   280710  100.00%
    240   242        0.0139   512        1.0000        0.0000   284335  100.00%
    248   250        0.0054   537        1.0000        0.0000   288027  100.00%
    265   267        0.5000   219        1.0000        0.0000   292131  100.00%
    302   304        0.5000   161        1.0000        0.0000   293600  100.00%
    337   339        0.5000   132        1.0000        0.0000   295515  100.00%
    363   357        0.5000   261        1.0000        0.0000   301964  100.00%
    380   374        0.5000   228        1.0000        0.0000   303458  100.00%
    400   394        0.5000   173        1.0000        0.0000   306315  100.00%
Elapsed time = 98.60 sec. (101733.34 ticks, tree = 1.10 MB, solutions = 4)
    433   427        0.5000   162        1.0000        0.0000   307903  100.00%
    477   471        0.0000   331        1.0000        0.0000   312091  100.00%

Performing restart 1

Repeating presolve.
Tried aggregator 1 time.
MIP Presolve modified 28512 coefficients.
Reduced MIP has 1211 rows, 4801 columns, and 48007 nonzeros.
Reduced MIP has 4800 binaries, 0 generals, 0 SOSs, and 0 indicators.
Presolve time = 0.04 sec. (49.46 ticks)
Tried aggregator 1 time.
Reduced MIP has 1211 rows, 4801 columns, and 48007 nonzeros.
Reduced MIP has 4800 binaries, 0 generals, 0 SOSs, and 0 indicators.
Presolve time = 0.03 sec. (24.94 ticks)
Represolve time = 0.17 sec. (175.82 ticks)
    481     0        0.0000   352        1.0000       Cuts: 7   323424  100.00%
    481     0        0.0000   421        1.0000       Cuts: 9   324451  100.00%
    481     2        0.0000   328        1.0000        0.0000   324451  100.00%
    482     3        0.0000   366        1.0000        0.0000   330059  100.00%
    483     4        0.0000   671        1.0000        0.0000   334692  100.00%
    484     5        0.0000   496        1.0000        0.0000   343416  100.00%
    485     6        0.0000   478        1.0000        0.0000   346652  100.00%
    488     9        0.0000   643        1.0000        0.0000   354367  100.00%
    489    10        0.0011   768        1.0000        0.0000   363098  100.00%
    491    12        0.0000   492        1.0000        0.0000   364088  100.00%
Elapsed time = 151.22 sec. (152739.87 ticks, tree = 0.07 MB, solutions = 4)
    492    13        0.5000   183        1.0000        0.0000   370803  100.00%
    494    15       -0.0000   545        1.0000        0.0000   372988  100.00%
    496    16        0.3333   399        1.0000        0.0000   380618  100.00%
    499    19        0.0000   563        1.0000        0.0000   384309  100.00%
    502    22        0.0000   628        1.0000        0.0000   388261  100.00%
    505    25        0.0000   524        1.0000        0.0000   390225  100.00%
    507    27        0.0015   748        1.0000        0.0000   400750  100.00%
    508    28       -0.0000   458        1.0000        0.0000   403571  100.00%
    511    30        0.3333   342        1.0000        0.0000   406587  100.00%
    513    32       -0.0000   398        1.0000        0.0000   412596  100.00%
Elapsed time = 164.18 sec. (166650.40 ticks, tree = 0.30 MB, solutions = 4)
    517    35       -0.0000   362        1.0000        0.0000   416558  100.00%
    520    37        0.3333   317        1.0000        0.0000   422555  100.00%
    521    38       -0.0000   352        1.0000        0.0000   422811  100.00%
    526    43        0.0013   724        1.0000        0.0000   429029  100.00%
    528    45        0.0008   729        1.0000        0.0000   437695  100.00%
    530    47        0.0000   441        1.0000        0.0000   444217  100.00%
    533    49        0.0000   343        1.0000        0.0000   448349  100.00%
    535    50        0.0010   712        1.0000        0.0000   452785  100.00%
    538    53        0.0000   326        1.0000        0.0000   461133  100.00%
    545    60        0.0000   284        1.0000        0.0000   472431  100.00%
Elapsed time = 183.59 sec. (186127.21 ticks, tree = 0.48 MB, solutions = 4)
    554    69        0.0000   368        1.0000        0.0000   484567  100.00%
    561    75        0.0006   697        1.0000        0.0000   497661  100.00%
    568    82       -0.0000   431        1.0000        0.0000   509386  100.00%
    577    90        0.0007   698        1.0000        0.0000   522427  100.00%
    581    94        0.0000   397        1.0000        0.0000   530391  100.00%
    592   103        0.0000   375        1.0000        0.0000   541132  100.00%
    601   109       -0.0000   336        1.0000        0.0000   552706  100.00%
    611   118        0.0019   685        1.0000        0.0000   566984  100.00%
    623   127        0.0023   675        1.0000        0.0000   578777  100.00%
    632   135        0.0000   344        1.0000        0.0000   585396  100.00%
Elapsed time = 237.21 sec. (236836.42 ticks, tree = 1.28 MB, solutions = 4)
    639   142        0.0000   322        1.0000        0.0000   597990  100.00%
    641   143        0.0000   359        1.0000        0.0000   621562  100.00%
    644   146        0.0000   436        1.0000        0.0000   646010  100.00%
    649   150        0.0000   381        1.0000        0.0000   662867  100.00%
    653   154       -0.0000   428        1.0000        0.0000   681455  100.00%
    663   162        0.0000   413        1.0000        0.0000   695947  100.00%
    670   167        0.0000   407        1.0000        0.0000   715667  100.00%
    674   170        0.0000   409        1.0000        0.0000   734629  100.00%
    682   178        0.0000   421        1.0000        0.0000   742034  100.00%
    695   190       -0.0000   352        1.0000        0.0000   770242  100.00%
Elapsed time = 282.68 sec. (281427.15 ticks, tree = 1.82 MB, solutions = 4)
    703   197       -0.0000   383        1.0000        0.0000   787707  100.00%
    716   209        0.0000   360        1.0000        0.0000   815364  100.00%
    735   225        0.0007   593        1.0000        0.0000   828918  100.00%
    757   238        0.0007   594        1.0000        0.0000   846762  100.00%
    781   257        0.0007   572        1.0000        0.0000   855420  100.00%
    803   278        0.0007   584        1.0000        0.0000   864937  100.00%
    821   293        0.0011   600        1.0000        0.0000   886829  100.00%
    847   312        0.0011   570        1.0000        0.0000   897955  100.00%
    870   330        0.0015   579        1.0000        0.0000   917591  100.00%
    897   355        0.0074   588        1.0000        0.0000   928955  100.00%
Elapsed time = 323.32 sec. (320262.56 ticks, tree = 3.70 MB, solutions = 4)
    921   378        0.0074   576        1.0000        0.0000   944684  100.00%
    951   405        0.0017   577        1.0000        0.0000   952156  100.00%
    974   425        0.0017   591        1.0000        0.0000   967163  100.00%
    999   449        0.3333   368        1.0000        0.0000   979268  100.00%
   1028   465        0.0021   589        1.0000        0.0000   990881  100.00%
   1049   483        0.0040   556        1.0000        0.0000  1006576  100.00%
   1077   508        0.0024   561        1.0000        0.0000  1016770  100.00%
   1105   530        0.0035   553        1.0000        0.0000  1028150  100.00%
   1187   602        0.5000   150        1.0000        0.0000  1037701  100.00%
   1290   672        0.3333   293        1.0000        0.0000  1049960  100.00%
Elapsed time = 364.21 sec. (359151.74 ticks, tree = 7.34 MB, solutions = 4)
   1362   715        0.5000   172        1.0000        0.0000  1056538  100.00%
   1507   842        0.5000   125        1.0000        0.0000  1063180  100.00%
   1519   849        0.0015   714        1.0000        0.0000  1089669  100.00%
   1522   850        0.0003   692        1.0000        0.0000  1123232  100.00%
   1535   863        0.0003   717        1.0000        0.0000  1133013  100.00%
   1554   882        0.0003   691        1.0000        0.0000  1139001  100.00%
   1573   901        0.0004   717        1.0000        0.0000  1145600  100.00%
   1594   920        0.0004   670        1.0000        0.0000  1149965  100.00%
   1608   934        0.0005   691        1.0000        0.0000  1153304  100.00%
   1629   955        0.0008   655        1.0000        0.0000  1159462  100.00%
Elapsed time = 406.24 sec. (400902.71 ticks, tree = 10.60 MB, solutions = 4)
   1653   976        0.0009   599        1.0000        0.0000  1167846  100.00%
   1677   997        0.0009   576        1.0000        0.0000  1172958  100.00%
   1693  1013        0.0000   473        1.0000        0.0000  1185015  100.00%
   1715  1034        0.0010   635        1.0000        0.0000  1192945  100.00%
   1737  1054        0.0011   616        1.0000        0.0000  1197627  100.00%
   1761  1078        0.0020   644        1.0000        0.0000  1202966  100.00%
   1784  1101        0.0020   653        1.0000        0.0000  1208464  100.00%
   1808  1125        0.0020   634        1.0000        0.0000  1214106  100.00%
   1832  1149        0.0020   632        1.0000        0.0000  1217044  100.00%
   1853  1169        0.0033   610        1.0000        0.0000  1228932  100.00%
Elapsed time = 447.14 sec. (440118.59 ticks, tree = 13.09 MB, solutions = 4)
   1879  1188        0.0055   593        1.0000        0.0000  1237943  100.00%
   1892  1200        0.0000   459        1.0000        0.0000  1255818  100.00%
   1913  1219        0.0039   647        1.0000        0.0000  1266157  100.00%
   1937  1242        0.0040   629        1.0000        0.0000  1273655  100.00%
   1961  1263        0.0042   576        1.0000        0.0000  1281875  100.00%
   1988  1281        0.0064   563        1.0000        0.0000  1289210  100.00%
   2013  1303        0.0065   570        1.0000        0.0000  1291837  100.00%
   2041  1321        0.0068   592        1.0000        0.0000  1296184  100.00%
   2070  1346        0.0094   558        1.0000        0.0000  1302014  100.00%
   2095  1366        0.0008   714        1.0000        0.0000  1310499  100.00%
Elapsed time = 487.78 sec. (479289.22 ticks, tree = 15.27 MB, solutions = 4)
   2115  1386        0.0008   714        1.0000        0.0000  1314789  100.00%
   2137  1408        0.0011   690        1.0000        0.0000  1318567  100.00%
   2157  1427        0.0012   670        1.0000        0.0000  1327458  100.00%
   2177  1447        0.0014   628        1.0000        0.0000  1335295  100.00%
   2200  1468        0.0014   649        1.0000        0.0000  1340211  100.00%
   2221  1488        0.0014   635        1.0000        0.0000  1346415  100.00%
   2243  1506        0.0014   659        1.0000        0.0000  1351833  100.00%
   2266  1524        0.0019   660        1.0000        0.0000  1357839  100.00%
   2283  1540        0.0021   677        1.0000        0.0000  1372377  100.00%
   2300  1556        0.0022   700        1.0000        0.0000  1387284  100.00%
Elapsed time = 527.63 sec. (518787.20 ticks, tree = 17.42 MB, solutions = 4)
   2317  1572        0.0023   667        1.0000        0.0000  1404262  100.00%
   2335  1586        0.0023   669        1.0000        0.0000  1419322  100.00%
   2353  1603        0.0119   632        1.0000        0.0000  1433537  100.00%
   2371  1619        0.0023   646        1.0000        0.0000  1446765  100.00%
*  2381+   97                            0.5000        0.0000           100.00%
Starting limited solution polishing.
   2381    96        0.5000     0        0.5000        0.0000  1454188  100.00%
   2389    98        0.0000   396        0.5000        0.0000  1477152  100.00%
   2399   102        0.0000   362        0.5000        0.0000  1505622  100.00%
   2400   101        cutoff              0.5000        0.0000  1528123  100.00%
   2401   102        0.0000   358        0.5000        0.0000  1528164  100.00%
   2407   103        cutoff              0.5000        0.0000  1552481  100.00%
Elapsed time = 576.22 sec. (565871.22 ticks, tree = 1.08 MB, solutions = 5)
   2422   110       -0.0000   508        0.5000        0.0000  1562941  100.00%
   2437   112        cutoff              0.5000        0.0000  1581082  100.00%
   2438   113        0.0000   280        0.5000        0.0000  1602425  100.00%
   2450   118        cutoff              0.5000        0.0000  1629955  100.00%

Zero-half cuts applied:  8
Gomory fractional cuts applied:  2

Root node processing (before b&c):
  Real time             =   10.37 sec. (10683.95 ticks)
Sequential b&c:
  Real time             =  589.63 sec. (578436.27 ticks)
                          ------------
Total (root+branch&cut) =  600.00 sec. (589120.21 ticks)
Primal:	0.5
Dual:	0
Status:	Feasible
Time:	600
Sequence:
	20
	9
	19
	12
	17
	6
	15
	5
	17
	6
	16
	8
	15
	3
	17
	6
	15
	10
	15
	0
	20
	8
	15
	10
	17
	1
	15
	12
	14
	6
	14
	5
	14
	6
	16
	6
	18
	10
	14
	8
	16
	6
	15
	12
	17
	7
	14
	10
	14
	6
	16
	9
	17
	8
	20
	6
	18
	10
	17
	8
	20
	7
	14
	4
	17
	6
	16
	9
	14
	10
	14
	6
	21
	8
	17
	4
	17
	9
	16
	8
	19
	2
	18
	8
	16
	8
	17
	3
	17
	6
	20
	8
	14
	6
	22
	0
	19
	10
	14
	8
	22
	1
	17
	10
	14
	8
	16
	7
	19
	10
	14
	6
	23
	6
	14
	4
	14
	8
	21
	6
	17
	2
	17
	8
	17
	4
	14
	9
	22
	6
	19
	2
	14
	7
	16
	8
	17
	2
	14
	7
	16
	6
	17
	4
	18
	6
	14
	10
	19
	0
	22
	6
	14
	10
	17
	7
	22
	8
	14
	4
	18
	6
	20
	8
	14
	5
	14
	6
	22
	6
	15
	5
	14
	6
	22
	6
	17
	13
	14
	6
	12
	14
	8
	14
	11
	19
	6
	16
	6
	17
	3
	15
	8
	16
	8
	17
	11
	14
	6
	20
